; benchmark generated from python API
(set-info :status unknown)
(declare-fun cell_1_1 () Int)
(declare-fun cell_1_6 () Int)
(declare-fun cell_1_8 () Int)
(declare-fun cell_2_3 () Int)
(declare-fun cell_2_4 () Int)
(declare-fun cell_3_7 () Int)
(declare-fun cell_3_8 () Int)
(declare-fun cell_4_2 () Int)
(declare-fun cell_4_9 () Int)
(declare-fun cell_5_4 () Int)
(declare-fun cell_5_5 () Int)
(declare-fun cell_6_3 () Int)
(declare-fun cell_6_8 () Int)
(declare-fun cell_7_6 () Int)
(declare-fun cell_7_9 () Int)
(declare-fun cell_8_2 () Int)
(declare-fun cell_8_5 () Int)
(declare-fun cell_9_1 () Int)
(declare-fun cell_9_7 () Int)
(declare-fun cell_2_1 () Int)
(declare-fun cell_3_1 () Int)
(declare-fun cell_4_1 () Int)
(declare-fun cell_5_1 () Int)
(declare-fun cell_6_1 () Int)
(declare-fun cell_7_1 () Int)
(declare-fun cell_8_1 () Int)
(declare-fun cell_1_2 () Int)
(declare-fun cell_2_2 () Int)
(declare-fun cell_3_2 () Int)
(declare-fun cell_5_2 () Int)
(declare-fun cell_6_2 () Int)
(declare-fun cell_7_2 () Int)
(declare-fun cell_9_2 () Int)
(declare-fun cell_1_3 () Int)
(declare-fun cell_3_3 () Int)
(declare-fun cell_4_3 () Int)
(declare-fun cell_5_3 () Int)
(declare-fun cell_7_3 () Int)
(declare-fun cell_8_3 () Int)
(declare-fun cell_9_3 () Int)
(declare-fun cell_1_4 () Int)
(declare-fun cell_3_4 () Int)
(declare-fun cell_4_4 () Int)
(declare-fun cell_6_4 () Int)
(declare-fun cell_7_4 () Int)
(declare-fun cell_8_4 () Int)
(declare-fun cell_9_4 () Int)
(declare-fun cell_1_5 () Int)
(declare-fun cell_2_5 () Int)
(declare-fun cell_3_5 () Int)
(declare-fun cell_4_5 () Int)
(declare-fun cell_6_5 () Int)
(declare-fun cell_7_5 () Int)
(declare-fun cell_9_5 () Int)
(declare-fun cell_2_6 () Int)
(declare-fun cell_3_6 () Int)
(declare-fun cell_4_6 () Int)
(declare-fun cell_5_6 () Int)
(declare-fun cell_6_6 () Int)
(declare-fun cell_8_6 () Int)
(declare-fun cell_9_6 () Int)
(declare-fun cell_1_7 () Int)
(declare-fun cell_2_7 () Int)
(declare-fun cell_4_7 () Int)
(declare-fun cell_5_7 () Int)
(declare-fun cell_6_7 () Int)
(declare-fun cell_7_7 () Int)
(declare-fun cell_8_7 () Int)
(declare-fun cell_2_8 () Int)
(declare-fun cell_4_8 () Int)
(declare-fun cell_5_8 () Int)
(declare-fun cell_7_8 () Int)
(declare-fun cell_8_8 () Int)
(declare-fun cell_9_8 () Int)
(declare-fun cell_1_9 () Int)
(declare-fun cell_2_9 () Int)
(declare-fun cell_3_9 () Int)
(declare-fun cell_5_9 () Int)
(declare-fun cell_6_9 () Int)
(declare-fun cell_8_9 () Int)
(declare-fun cell_9_9 () Int)
(assert
 (= cell_1_1 2))
(assert
 (= cell_1_6 1))
(assert
 (= cell_1_8 3))
(assert
 (= cell_2_3 1))
(assert
 (= cell_2_4 2))
(assert
 (= cell_3_7 1))
(assert
 (= cell_3_8 2))
(assert
 (= cell_4_2 1))
(assert
 (= cell_4_9 2))
(assert
 (= cell_5_4 1))
(assert
 (= cell_5_5 2))
(assert
 (= cell_6_3 2))
(assert
 (= cell_6_8 1))
(assert
 (= cell_7_6 2))
(assert
 (= cell_7_9 1))
(assert
 (= cell_8_2 2))
(assert
 (= cell_8_5 1))
(assert
 (= cell_9_1 1))
(assert
 (= cell_9_7 2))
(assert
 (let (($x8849 (= cell_1_1 2)))
 (or (= cell_1_1 1) $x8849 (= cell_1_1 3) (= cell_1_1 4) (= cell_1_1 5) (= cell_1_1 6) (= cell_1_1 7) (= cell_1_1 8) (= cell_1_1 9))))
(assert
 (let (($x1347 (= cell_2_1 9)))
 (let (($x584 (= cell_2_1 8)))
 (let (($x10039 (= cell_2_1 7)))
 (let (($x3810 (= cell_2_1 6)))
 (let (($x5567 (= cell_2_1 5)))
 (let (($x7295 (= cell_2_1 4)))
 (let (($x8685 (= cell_2_1 3)))
 (let (($x4836 (= cell_2_1 2)))
 (let (($x2966 (= cell_2_1 1)))
 (or $x2966 $x4836 $x8685 $x7295 $x5567 $x3810 $x10039 $x584 $x1347)))))))))))
(assert
 (let (($x2138 (= cell_3_1 9)))
 (let (($x8923 (= cell_3_1 8)))
 (let (($x1331 (= cell_3_1 7)))
 (let (($x9260 (= cell_3_1 6)))
 (let (($x7736 (= cell_3_1 5)))
 (let (($x1292 (= cell_3_1 4)))
 (let (($x2723 (= cell_3_1 3)))
 (let (($x5676 (= cell_3_1 2)))
 (let (($x462 (= cell_3_1 1)))
 (or $x462 $x5676 $x2723 $x1292 $x7736 $x9260 $x1331 $x8923 $x2138)))))))))))
(assert
 (let (($x4201 (= cell_4_1 9)))
 (let (($x875 (= cell_4_1 8)))
 (let (($x2127 (= cell_4_1 7)))
 (let (($x1809 (= cell_4_1 6)))
 (let (($x7050 (= cell_4_1 5)))
 (let (($x1681 (= cell_4_1 4)))
 (let (($x8458 (= cell_4_1 3)))
 (let (($x6658 (= cell_4_1 2)))
 (let (($x3585 (= cell_4_1 1)))
 (or $x3585 $x6658 $x8458 $x1681 $x7050 $x1809 $x2127 $x875 $x4201)))))))))))
(assert
 (let (($x10037 (= cell_5_1 9)))
 (let (($x3468 (= cell_5_1 8)))
 (let (($x10096 (= cell_5_1 7)))
 (let (($x4588 (= cell_5_1 6)))
 (let (($x9271 (= cell_5_1 5)))
 (let (($x10028 (= cell_5_1 4)))
 (let (($x2062 (= cell_5_1 3)))
 (let (($x7553 (= cell_5_1 2)))
 (let (($x4251 (= cell_5_1 1)))
 (or $x4251 $x7553 $x2062 $x10028 $x9271 $x4588 $x10096 $x3468 $x10037)))))))))))
(assert
 (let (($x6478 (= cell_6_1 9)))
 (let (($x14 (= cell_6_1 8)))
 (let (($x2835 (= cell_6_1 7)))
 (let (($x4640 (= cell_6_1 6)))
 (let (($x7744 (= cell_6_1 5)))
 (let (($x1773 (= cell_6_1 4)))
 (let (($x1329 (= cell_6_1 3)))
 (let (($x9845 (= cell_6_1 2)))
 (let (($x9032 (= cell_6_1 1)))
 (or $x9032 $x9845 $x1329 $x1773 $x7744 $x4640 $x2835 $x14 $x6478)))))))))))
(assert
 (let (($x6617 (= cell_7_1 9)))
 (let (($x9026 (= cell_7_1 8)))
 (let (($x2635 (= cell_7_1 7)))
 (let (($x6195 (= cell_7_1 6)))
 (let (($x9559 (= cell_7_1 5)))
 (let (($x1286 (= cell_7_1 4)))
 (let (($x3840 (= cell_7_1 3)))
 (let (($x6912 (= cell_7_1 2)))
 (let (($x9045 (= cell_7_1 1)))
 (or $x9045 $x6912 $x3840 $x1286 $x9559 $x6195 $x2635 $x9026 $x6617)))))))))))
(assert
 (let (($x396 (= cell_8_1 9)))
 (let (($x4383 (= cell_8_1 8)))
 (let (($x3960 (= cell_8_1 7)))
 (let (($x3245 (= cell_8_1 6)))
 (let (($x7136 (= cell_8_1 5)))
 (let (($x2782 (= cell_8_1 4)))
 (let (($x8808 (= cell_8_1 3)))
 (let (($x2370 (= cell_8_1 2)))
 (let (($x1671 (= cell_8_1 1)))
 (or $x1671 $x2370 $x8808 $x2782 $x7136 $x3245 $x3960 $x4383 $x396)))))))))))
(assert
 (let (($x4862 (= cell_9_1 1)))
 (or $x4862 (= cell_9_1 2) (= cell_9_1 3) (= cell_9_1 4) (= cell_9_1 5) (= cell_9_1 6) (= cell_9_1 7) (= cell_9_1 8) (= cell_9_1 9))))
(assert
 (let (($x3390 (= cell_1_2 9)))
 (let (($x2990 (= cell_1_2 8)))
 (let (($x10264 (= cell_1_2 7)))
 (let (($x675 (= cell_1_2 6)))
 (let (($x9588 (= cell_1_2 5)))
 (let (($x7732 (= cell_1_2 4)))
 (let (($x7561 (= cell_1_2 3)))
 (let (($x2783 (= cell_1_2 2)))
 (let (($x5440 (= cell_1_2 1)))
 (or $x5440 $x2783 $x7561 $x7732 $x9588 $x675 $x10264 $x2990 $x3390)))))))))))
(assert
 (let (($x6287 (= cell_2_2 9)))
 (let (($x6404 (= cell_2_2 8)))
 (let (($x2596 (= cell_2_2 7)))
 (let (($x2605 (= cell_2_2 6)))
 (let (($x1777 (= cell_2_2 5)))
 (let (($x6073 (= cell_2_2 4)))
 (let (($x2740 (= cell_2_2 3)))
 (let (($x579 (= cell_2_2 2)))
 (let (($x5248 (= cell_2_2 1)))
 (or $x5248 $x579 $x2740 $x6073 $x1777 $x2605 $x2596 $x6404 $x6287)))))))))))
(assert
 (let (($x9296 (= cell_3_2 9)))
 (let (($x7632 (= cell_3_2 8)))
 (let (($x2085 (= cell_3_2 7)))
 (let (($x7117 (= cell_3_2 6)))
 (let (($x8690 (= cell_3_2 5)))
 (let (($x8242 (= cell_3_2 4)))
 (let (($x2443 (= cell_3_2 3)))
 (let (($x1747 (= cell_3_2 2)))
 (let (($x6456 (= cell_3_2 1)))
 (or $x6456 $x1747 $x2443 $x8242 $x8690 $x7117 $x2085 $x7632 $x9296)))))))))))
(assert
 (let (($x4643 (= cell_4_2 1)))
 (or $x4643 (= cell_4_2 2) (= cell_4_2 3) (= cell_4_2 4) (= cell_4_2 5) (= cell_4_2 6) (= cell_4_2 7) (= cell_4_2 8) (= cell_4_2 9))))
(assert
 (let (($x6550 (= cell_5_2 9)))
 (let (($x7838 (= cell_5_2 8)))
 (let (($x5022 (= cell_5_2 7)))
 (let (($x8510 (= cell_5_2 6)))
 (let (($x4792 (= cell_5_2 5)))
 (let (($x7053 (= cell_5_2 4)))
 (let (($x5140 (= cell_5_2 3)))
 (let (($x6289 (= cell_5_2 2)))
 (let (($x5074 (= cell_5_2 1)))
 (or $x5074 $x6289 $x5140 $x7053 $x4792 $x8510 $x5022 $x7838 $x6550)))))))))))
(assert
 (let (($x5329 (= cell_6_2 9)))
 (let (($x8528 (= cell_6_2 8)))
 (let (($x2840 (= cell_6_2 7)))
 (let (($x6045 (= cell_6_2 6)))
 (let (($x5894 (= cell_6_2 5)))
 (let (($x1745 (= cell_6_2 4)))
 (let (($x7239 (= cell_6_2 3)))
 (let (($x4900 (= cell_6_2 2)))
 (let (($x795 (= cell_6_2 1)))
 (or $x795 $x4900 $x7239 $x1745 $x5894 $x6045 $x2840 $x8528 $x5329)))))))))))
(assert
 (let (($x8306 (= cell_7_2 9)))
 (let (($x972 (= cell_7_2 8)))
 (let (($x8788 (= cell_7_2 7)))
 (let (($x7624 (= cell_7_2 6)))
 (let (($x7523 (= cell_7_2 5)))
 (let (($x1415 (= cell_7_2 4)))
 (let (($x2270 (= cell_7_2 3)))
 (let (($x1894 (= cell_7_2 2)))
 (let (($x3930 (= cell_7_2 1)))
 (or $x3930 $x1894 $x2270 $x1415 $x7523 $x7624 $x8788 $x972 $x8306)))))))))))
(assert
 (let (($x3662 (= cell_8_2 2)))
 (or (= cell_8_2 1) $x3662 (= cell_8_2 3) (= cell_8_2 4) (= cell_8_2 5) (= cell_8_2 6) (= cell_8_2 7) (= cell_8_2 8) (= cell_8_2 9))))
(assert
 (let (($x1493 (= cell_9_2 9)))
 (let (($x6378 (= cell_9_2 8)))
 (let (($x4825 (= cell_9_2 7)))
 (let (($x5176 (= cell_9_2 6)))
 (let (($x6857 (= cell_9_2 5)))
 (let (($x6309 (= cell_9_2 4)))
 (let (($x3799 (= cell_9_2 3)))
 (let (($x8161 (= cell_9_2 2)))
 (let (($x9407 (= cell_9_2 1)))
 (or $x9407 $x8161 $x3799 $x6309 $x6857 $x5176 $x4825 $x6378 $x1493)))))))))))
(assert
 (let (($x4082 (= cell_1_3 9)))
 (let (($x1224 (= cell_1_3 8)))
 (let (($x7166 (= cell_1_3 7)))
 (let (($x6537 (= cell_1_3 6)))
 (let (($x3955 (= cell_1_3 5)))
 (let (($x8315 (= cell_1_3 4)))
 (let (($x9815 (= cell_1_3 3)))
 (let (($x8905 (= cell_1_3 2)))
 (let (($x318 (= cell_1_3 1)))
 (or $x318 $x8905 $x9815 $x8315 $x3955 $x6537 $x7166 $x1224 $x4082)))))))))))
(assert
 (let (($x4827 (= cell_2_3 1)))
 (or $x4827 (= cell_2_3 2) (= cell_2_3 3) (= cell_2_3 4) (= cell_2_3 5) (= cell_2_3 6) (= cell_2_3 7) (= cell_2_3 8) (= cell_2_3 9))))
(assert
 (let (($x1008 (= cell_3_3 9)))
 (let (($x7408 (= cell_3_3 8)))
 (let (($x597 (= cell_3_3 7)))
 (let (($x3741 (= cell_3_3 6)))
 (let (($x1986 (= cell_3_3 5)))
 (let (($x4654 (= cell_3_3 4)))
 (let (($x8069 (= cell_3_3 3)))
 (let (($x1296 (= cell_3_3 2)))
 (let (($x6016 (= cell_3_3 1)))
 (or $x6016 $x1296 $x8069 $x4654 $x1986 $x3741 $x597 $x7408 $x1008)))))))))))
(assert
 (let (($x5646 (= cell_4_3 9)))
 (let (($x2779 (= cell_4_3 8)))
 (let (($x8755 (= cell_4_3 7)))
 (let (($x9099 (= cell_4_3 6)))
 (let (($x735 (= cell_4_3 5)))
 (let (($x2084 (= cell_4_3 4)))
 (let (($x3138 (= cell_4_3 3)))
 (let (($x9297 (= cell_4_3 2)))
 (let (($x5964 (= cell_4_3 1)))
 (or $x5964 $x9297 $x3138 $x2084 $x735 $x9099 $x8755 $x2779 $x5646)))))))))))
(assert
 (let (($x10203 (= cell_5_3 9)))
 (let (($x5679 (= cell_5_3 8)))
 (let (($x10021 (= cell_5_3 7)))
 (let (($x3068 (= cell_5_3 6)))
 (let (($x2134 (= cell_5_3 5)))
 (let (($x9866 (= cell_5_3 4)))
 (let (($x3501 (= cell_5_3 3)))
 (let (($x4476 (= cell_5_3 2)))
 (let (($x2219 (= cell_5_3 1)))
 (or $x2219 $x4476 $x3501 $x9866 $x2134 $x3068 $x10021 $x5679 $x10203)))))))))))
(assert
 (let (($x6592 (= cell_6_3 2)))
 (or (= cell_6_3 1) $x6592 (= cell_6_3 3) (= cell_6_3 4) (= cell_6_3 5) (= cell_6_3 6) (= cell_6_3 7) (= cell_6_3 8) (= cell_6_3 9))))
(assert
 (let (($x4565 (= cell_7_3 9)))
 (let (($x2655 (= cell_7_3 8)))
 (let (($x4701 (= cell_7_3 7)))
 (let (($x3691 (= cell_7_3 6)))
 (let (($x15 (= cell_7_3 5)))
 (let (($x9551 (= cell_7_3 4)))
 (let (($x4699 (= cell_7_3 3)))
 (let (($x1644 (= cell_7_3 2)))
 (let (($x7316 (= cell_7_3 1)))
 (or $x7316 $x1644 $x4699 $x9551 $x15 $x3691 $x4701 $x2655 $x4565)))))))))))
(assert
 (let (($x8641 (= cell_8_3 9)))
 (let (($x2409 (= cell_8_3 8)))
 (let (($x6845 (= cell_8_3 7)))
 (let (($x3306 (= cell_8_3 6)))
 (let (($x3280 (= cell_8_3 5)))
 (let (($x9358 (= cell_8_3 4)))
 (let (($x3825 (= cell_8_3 3)))
 (let (($x252 (= cell_8_3 2)))
 (let (($x3917 (= cell_8_3 1)))
 (or $x3917 $x252 $x3825 $x9358 $x3280 $x3306 $x6845 $x2409 $x8641)))))))))))
(assert
 (let (($x3441 (= cell_9_3 9)))
 (let (($x6000 (= cell_9_3 8)))
 (let (($x4386 (= cell_9_3 7)))
 (let (($x2864 (= cell_9_3 6)))
 (let (($x777 (= cell_9_3 5)))
 (let (($x8221 (= cell_9_3 4)))
 (let (($x3507 (= cell_9_3 3)))
 (let (($x7000 (= cell_9_3 2)))
 (let (($x4175 (= cell_9_3 1)))
 (or $x4175 $x7000 $x3507 $x8221 $x777 $x2864 $x4386 $x6000 $x3441)))))))))))
(assert
 (let (($x8496 (= cell_1_4 9)))
 (let (($x9298 (= cell_1_4 8)))
 (let (($x8589 (= cell_1_4 7)))
 (let (($x725 (= cell_1_4 6)))
 (let (($x538 (= cell_1_4 5)))
 (let (($x5586 (= cell_1_4 4)))
 (let (($x6332 (= cell_1_4 3)))
 (let (($x4071 (= cell_1_4 2)))
 (let (($x6230 (= cell_1_4 1)))
 (or $x6230 $x4071 $x6332 $x5586 $x538 $x725 $x8589 $x9298 $x8496)))))))))))
(assert
 (let (($x1346 (= cell_2_4 2)))
 (or (= cell_2_4 1) $x1346 (= cell_2_4 3) (= cell_2_4 4) (= cell_2_4 5) (= cell_2_4 6) (= cell_2_4 7) (= cell_2_4 8) (= cell_2_4 9))))
(assert
 (let (($x1173 (= cell_3_4 9)))
 (let (($x5229 (= cell_3_4 8)))
 (let (($x3684 (= cell_3_4 7)))
 (let (($x3005 (= cell_3_4 6)))
 (let (($x7806 (= cell_3_4 5)))
 (let (($x3477 (= cell_3_4 4)))
 (let (($x1967 (= cell_3_4 3)))
 (let (($x177 (= cell_3_4 2)))
 (let (($x3848 (= cell_3_4 1)))
 (or $x3848 $x177 $x1967 $x3477 $x7806 $x3005 $x3684 $x5229 $x1173)))))))))))
(assert
 (let (($x6924 (= cell_4_4 9)))
 (let (($x3448 (= cell_4_4 8)))
 (let (($x7448 (= cell_4_4 7)))
 (let (($x249 (= cell_4_4 6)))
 (let (($x1690 (= cell_4_4 5)))
 (let (($x5624 (= cell_4_4 4)))
 (let (($x9310 (= cell_4_4 3)))
 (let (($x3677 (= cell_4_4 2)))
 (let (($x1910 (= cell_4_4 1)))
 (or $x1910 $x3677 $x9310 $x5624 $x1690 $x249 $x7448 $x3448 $x6924)))))))))))
(assert
 (let (($x6473 (= cell_5_4 1)))
 (or $x6473 (= cell_5_4 2) (= cell_5_4 3) (= cell_5_4 4) (= cell_5_4 5) (= cell_5_4 6) (= cell_5_4 7) (= cell_5_4 8) (= cell_5_4 9))))
(assert
 (let (($x9437 (= cell_6_4 9)))
 (let (($x5742 (= cell_6_4 8)))
 (let (($x9906 (= cell_6_4 7)))
 (let (($x5323 (= cell_6_4 6)))
 (let (($x1484 (= cell_6_4 5)))
 (let (($x957 (= cell_6_4 4)))
 (let (($x5549 (= cell_6_4 3)))
 (let (($x8104 (= cell_6_4 2)))
 (let (($x8622 (= cell_6_4 1)))
 (or $x8622 $x8104 $x5549 $x957 $x1484 $x5323 $x9906 $x5742 $x9437)))))))))))
(assert
 (let (($x2499 (= cell_7_4 9)))
 (let (($x7646 (= cell_7_4 8)))
 (let (($x2777 (= cell_7_4 7)))
 (let (($x3675 (= cell_7_4 6)))
 (let (($x4496 (= cell_7_4 5)))
 (let (($x2588 (= cell_7_4 4)))
 (let (($x3737 (= cell_7_4 3)))
 (let (($x8056 (= cell_7_4 2)))
 (let (($x619 (= cell_7_4 1)))
 (or $x619 $x8056 $x3737 $x2588 $x4496 $x3675 $x2777 $x7646 $x2499)))))))))))
(assert
 (let (($x201 (= cell_8_4 9)))
 (let (($x4740 (= cell_8_4 8)))
 (let (($x1990 (= cell_8_4 7)))
 (let (($x3088 (= cell_8_4 6)))
 (let (($x9061 (= cell_8_4 5)))
 (let (($x9034 (= cell_8_4 4)))
 (let (($x8005 (= cell_8_4 3)))
 (let (($x8823 (= cell_8_4 2)))
 (let (($x5849 (= cell_8_4 1)))
 (or $x5849 $x8823 $x8005 $x9034 $x9061 $x3088 $x1990 $x4740 $x201)))))))))))
(assert
 (let (($x2786 (= cell_9_4 9)))
 (let (($x937 (= cell_9_4 8)))
 (let (($x8280 (= cell_9_4 7)))
 (let (($x632 (= cell_9_4 6)))
 (let (($x6155 (= cell_9_4 5)))
 (let (($x1873 (= cell_9_4 4)))
 (let (($x4691 (= cell_9_4 3)))
 (let (($x5966 (= cell_9_4 2)))
 (let (($x7307 (= cell_9_4 1)))
 (or $x7307 $x5966 $x4691 $x1873 $x6155 $x632 $x8280 $x937 $x2786)))))))))))
(assert
 (let (($x9114 (= cell_1_5 9)))
 (let (($x664 (= cell_1_5 8)))
 (let (($x5188 (= cell_1_5 7)))
 (let (($x1593 (= cell_1_5 6)))
 (let (($x4666 (= cell_1_5 5)))
 (let (($x4370 (= cell_1_5 4)))
 (let (($x7215 (= cell_1_5 3)))
 (let (($x5179 (= cell_1_5 2)))
 (let (($x8179 (= cell_1_5 1)))
 (or $x8179 $x5179 $x7215 $x4370 $x4666 $x1593 $x5188 $x664 $x9114)))))))))))
(assert
 (let (($x5364 (= cell_2_5 9)))
 (let (($x7086 (= cell_2_5 8)))
 (let (($x1469 (= cell_2_5 7)))
 (let (($x5304 (= cell_2_5 6)))
 (let (($x8015 (= cell_2_5 5)))
 (let (($x1250 (= cell_2_5 4)))
 (let (($x4501 (= cell_2_5 3)))
 (let (($x6292 (= cell_2_5 2)))
 (let (($x3943 (= cell_2_5 1)))
 (or $x3943 $x6292 $x4501 $x1250 $x8015 $x5304 $x1469 $x7086 $x5364)))))))))))
(assert
 (let (($x7916 (= cell_3_5 9)))
 (let (($x9163 (= cell_3_5 8)))
 (let (($x2649 (= cell_3_5 7)))
 (let (($x2985 (= cell_3_5 6)))
 (let (($x2140 (= cell_3_5 5)))
 (let (($x7099 (= cell_3_5 4)))
 (let (($x7271 (= cell_3_5 3)))
 (let (($x2757 (= cell_3_5 2)))
 (let (($x761 (= cell_3_5 1)))
 (or $x761 $x2757 $x7271 $x7099 $x2140 $x2985 $x2649 $x9163 $x7916)))))))))))
(assert
 (let (($x7627 (= cell_4_5 9)))
 (let (($x2114 (= cell_4_5 8)))
 (let (($x2161 (= cell_4_5 7)))
 (let (($x5919 (= cell_4_5 6)))
 (let (($x3557 (= cell_4_5 5)))
 (let (($x6844 (= cell_4_5 4)))
 (let (($x4712 (= cell_4_5 3)))
 (let (($x7773 (= cell_4_5 2)))
 (let (($x4938 (= cell_4_5 1)))
 (or $x4938 $x7773 $x4712 $x6844 $x3557 $x5919 $x2161 $x2114 $x7627)))))))))))
(assert
 (let (($x4313 (= cell_5_5 2)))
 (or (= cell_5_5 1) $x4313 (= cell_5_5 3) (= cell_5_5 4) (= cell_5_5 5) (= cell_5_5 6) (= cell_5_5 7) (= cell_5_5 8) (= cell_5_5 9))))
(assert
 (let (($x4579 (= cell_6_5 9)))
 (let (($x5281 (= cell_6_5 8)))
 (let (($x8976 (= cell_6_5 7)))
 (let (($x5672 (= cell_6_5 6)))
 (let (($x3352 (= cell_6_5 5)))
 (let (($x7012 (= cell_6_5 4)))
 (let (($x5383 (= cell_6_5 3)))
 (let (($x2871 (= cell_6_5 2)))
 (let (($x7417 (= cell_6_5 1)))
 (or $x7417 $x2871 $x5383 $x7012 $x3352 $x5672 $x8976 $x5281 $x4579)))))))))))
(assert
 (let (($x5698 (= cell_7_5 9)))
 (let (($x7315 (= cell_7_5 8)))
 (let (($x9213 (= cell_7_5 7)))
 (let (($x645 (= cell_7_5 6)))
 (let (($x6273 (= cell_7_5 5)))
 (let (($x5874 (= cell_7_5 4)))
 (let (($x7419 (= cell_7_5 3)))
 (let (($x4917 (= cell_7_5 2)))
 (let (($x9748 (= cell_7_5 1)))
 (or $x9748 $x4917 $x7419 $x5874 $x6273 $x645 $x9213 $x7315 $x5698)))))))))))
(assert
 (let (($x973 (= cell_8_5 1)))
 (or $x973 (= cell_8_5 2) (= cell_8_5 3) (= cell_8_5 4) (= cell_8_5 5) (= cell_8_5 6) (= cell_8_5 7) (= cell_8_5 8) (= cell_8_5 9))))
(assert
 (let (($x3098 (= cell_9_5 9)))
 (let (($x8397 (= cell_9_5 8)))
 (let (($x9279 (= cell_9_5 7)))
 (let (($x7791 (= cell_9_5 6)))
 (let (($x4469 (= cell_9_5 5)))
 (let (($x10004 (= cell_9_5 4)))
 (let (($x9053 (= cell_9_5 3)))
 (let (($x8998 (= cell_9_5 2)))
 (let (($x9598 (= cell_9_5 1)))
 (or $x9598 $x8998 $x9053 $x10004 $x4469 $x7791 $x9279 $x8397 $x3098)))))))))))
(assert
 (let (($x5523 (= cell_1_6 1)))
 (or $x5523 (= cell_1_6 2) (= cell_1_6 3) (= cell_1_6 4) (= cell_1_6 5) (= cell_1_6 6) (= cell_1_6 7) (= cell_1_6 8) (= cell_1_6 9))))
(assert
 (let (($x418 (= cell_2_6 9)))
 (let (($x408 (= cell_2_6 8)))
 (let (($x3694 (= cell_2_6 7)))
 (let (($x88 (= cell_2_6 6)))
 (let (($x2516 (= cell_2_6 5)))
 (let (($x1194 (= cell_2_6 4)))
 (let (($x3639 (= cell_2_6 3)))
 (let (($x187 (= cell_2_6 2)))
 (let (($x4698 (= cell_2_6 1)))
 (or $x4698 $x187 $x3639 $x1194 $x2516 $x88 $x3694 $x408 $x418)))))))))))
(assert
 (let (($x10108 (= cell_3_6 9)))
 (let (($x5514 (= cell_3_6 8)))
 (let (($x4616 (= cell_3_6 7)))
 (let (($x974 (= cell_3_6 6)))
 (let (($x1079 (= cell_3_6 5)))
 (let (($x3291 (= cell_3_6 4)))
 (let (($x2735 (= cell_3_6 3)))
 (let (($x1534 (= cell_3_6 2)))
 (let (($x6584 (= cell_3_6 1)))
 (or $x6584 $x1534 $x2735 $x3291 $x1079 $x974 $x4616 $x5514 $x10108)))))))))))
(assert
 (let (($x6379 (= cell_4_6 9)))
 (let (($x8648 (= cell_4_6 8)))
 (let (($x7549 (= cell_4_6 7)))
 (let (($x1763 (= cell_4_6 6)))
 (let (($x9188 (= cell_4_6 5)))
 (let (($x8006 (= cell_4_6 4)))
 (let (($x106 (= cell_4_6 3)))
 (let (($x6729 (= cell_4_6 2)))
 (let (($x5693 (= cell_4_6 1)))
 (or $x5693 $x6729 $x106 $x8006 $x9188 $x1763 $x7549 $x8648 $x6379)))))))))))
(assert
 (let (($x8355 (= cell_5_6 9)))
 (let (($x4952 (= cell_5_6 8)))
 (let (($x4267 (= cell_5_6 7)))
 (let (($x4486 (= cell_5_6 6)))
 (let (($x8246 (= cell_5_6 5)))
 (let (($x1256 (= cell_5_6 4)))
 (let (($x8723 (= cell_5_6 3)))
 (let (($x5294 (= cell_5_6 2)))
 (let (($x3896 (= cell_5_6 1)))
 (or $x3896 $x5294 $x8723 $x1256 $x8246 $x4486 $x4267 $x4952 $x8355)))))))))))
(assert
 (let (($x9426 (= cell_6_6 9)))
 (let (($x2151 (= cell_6_6 8)))
 (let (($x8665 (= cell_6_6 7)))
 (let (($x2106 (= cell_6_6 6)))
 (let (($x6376 (= cell_6_6 5)))
 (let (($x5461 (= cell_6_6 4)))
 (let (($x5232 (= cell_6_6 3)))
 (let (($x9822 (= cell_6_6 2)))
 (let (($x9338 (= cell_6_6 1)))
 (or $x9338 $x9822 $x5232 $x5461 $x6376 $x2106 $x8665 $x2151 $x9426)))))))))))
(assert
 (let (($x3136 (= cell_7_6 2)))
 (or (= cell_7_6 1) $x3136 (= cell_7_6 3) (= cell_7_6 4) (= cell_7_6 5) (= cell_7_6 6) (= cell_7_6 7) (= cell_7_6 8) (= cell_7_6 9))))
(assert
 (let (($x10034 (= cell_8_6 2)))
 (let (($x7288 (= cell_8_6 1)))
 (or $x7288 $x10034 (= cell_8_6 3) (= cell_8_6 4) (= cell_8_6 5) (= cell_8_6 6) (= cell_8_6 7) (= cell_8_6 8) (= cell_8_6 9)))))
(assert
 (let (($x5385 (= cell_9_6 9)))
 (let (($x7183 (= cell_9_6 8)))
 (let (($x80 (= cell_9_6 7)))
 (let (($x4595 (= cell_9_6 6)))
 (let (($x9679 (= cell_9_6 5)))
 (let (($x7534 (= cell_9_6 4)))
 (let (($x8213 (= cell_9_6 3)))
 (let (($x6782 (= cell_9_6 2)))
 (let (($x8834 (= cell_9_6 1)))
 (or $x8834 $x6782 $x8213 $x7534 $x9679 $x4595 $x80 $x7183 $x5385)))))))))))
(assert
 (let (($x2883 (= cell_1_7 9)))
 (let (($x1636 (= cell_1_7 8)))
 (let (($x3387 (= cell_1_7 7)))
 (let (($x2844 (= cell_1_7 6)))
 (let (($x10070 (= cell_1_7 5)))
 (let (($x5386 (= cell_1_7 4)))
 (let (($x1245 (= cell_1_7 3)))
 (let (($x7965 (= cell_1_7 2)))
 (let (($x245 (= cell_1_7 1)))
 (or $x245 $x7965 $x1245 $x5386 $x10070 $x2844 $x3387 $x1636 $x2883)))))))))))
(assert
 (let (($x6071 (= cell_2_7 9)))
 (let (($x10138 (= cell_2_7 8)))
 (let (($x673 (= cell_2_7 7)))
 (let (($x8381 (= cell_2_7 6)))
 (let (($x9561 (= cell_2_7 5)))
 (let (($x9994 (= cell_2_7 4)))
 (let (($x3941 (= cell_2_7 3)))
 (let (($x1420 (= cell_2_7 2)))
 (let (($x6080 (= cell_2_7 1)))
 (or $x6080 $x1420 $x3941 $x9994 $x9561 $x8381 $x673 $x10138 $x6071)))))))))))
(assert
 (let (($x8158 (= cell_3_7 1)))
 (or $x8158 (= cell_3_7 2) (= cell_3_7 3) (= cell_3_7 4) (= cell_3_7 5) (= cell_3_7 6) (= cell_3_7 7) (= cell_3_7 8) (= cell_3_7 9))))
(assert
 (let (($x514 (= cell_4_7 9)))
 (let (($x4105 (= cell_4_7 8)))
 (let (($x5432 (= cell_4_7 7)))
 (let (($x8412 (= cell_4_7 6)))
 (let (($x6281 (= cell_4_7 5)))
 (let (($x6616 (= cell_4_7 4)))
 (let (($x6712 (= cell_4_7 3)))
 (let (($x2545 (= cell_4_7 2)))
 (let (($x2509 (= cell_4_7 1)))
 (or $x2509 $x2545 $x6712 $x6616 $x6281 $x8412 $x5432 $x4105 $x514)))))))))))
(assert
 (let (($x4056 (= cell_5_7 9)))
 (let (($x5047 (= cell_5_7 8)))
 (let (($x3437 (= cell_5_7 7)))
 (let (($x9143 (= cell_5_7 6)))
 (let (($x8542 (= cell_5_7 5)))
 (let (($x1865 (= cell_5_7 4)))
 (let (($x654 (= cell_5_7 3)))
 (let (($x8462 (= cell_5_7 2)))
 (let (($x1508 (= cell_5_7 1)))
 (or $x1508 $x8462 $x654 $x1865 $x8542 $x9143 $x3437 $x5047 $x4056)))))))))))
(assert
 (let (($x658 (= cell_6_7 9)))
 (let (($x1405 (= cell_6_7 8)))
 (let (($x7426 (= cell_6_7 7)))
 (let (($x4100 (= cell_6_7 6)))
 (let (($x5250 (= cell_6_7 5)))
 (let (($x4311 (= cell_6_7 4)))
 (let (($x893 (= cell_6_7 3)))
 (let (($x472 (= cell_6_7 2)))
 (let (($x5458 (= cell_6_7 1)))
 (or $x5458 $x472 $x893 $x4311 $x5250 $x4100 $x7426 $x1405 $x658)))))))))))
(assert
 (let (($x3207 (= cell_7_7 9)))
 (let (($x1570 (= cell_7_7 8)))
 (let (($x8130 (= cell_7_7 7)))
 (let (($x4316 (= cell_7_7 6)))
 (let (($x2607 (= cell_7_7 5)))
 (let (($x4264 (= cell_7_7 4)))
 (let (($x7768 (= cell_7_7 3)))
 (let (($x6587 (= cell_7_7 2)))
 (let (($x3823 (= cell_7_7 1)))
 (or $x3823 $x6587 $x7768 $x4264 $x2607 $x4316 $x8130 $x1570 $x3207)))))))))))
(assert
 (let (($x3027 (= cell_8_7 9)))
 (let (($x4816 (= cell_8_7 8)))
 (let (($x4176 (= cell_8_7 7)))
 (let (($x4401 (= cell_8_7 6)))
 (let (($x3538 (= cell_8_7 5)))
 (let (($x1837 (= cell_8_7 4)))
 (let (($x7653 (= cell_8_7 3)))
 (let (($x5580 (= cell_8_7 2)))
 (let (($x3029 (= cell_8_7 1)))
 (or $x3029 $x5580 $x7653 $x1837 $x3538 $x4401 $x4176 $x4816 $x3027)))))))))))
(assert
 (let (($x6023 (= cell_9_7 2)))
 (or (= cell_9_7 1) $x6023 (= cell_9_7 3) (= cell_9_7 4) (= cell_9_7 5) (= cell_9_7 6) (= cell_9_7 7) (= cell_9_7 8) (= cell_9_7 9))))
(assert
 (let (($x6003 (= cell_1_8 3)))
 (or (= cell_1_8 1) (= cell_1_8 2) $x6003 (= cell_1_8 4) (= cell_1_8 5) (= cell_1_8 6) (= cell_1_8 7) (= cell_1_8 8) (= cell_1_8 9))))
(assert
 (let (($x3680 (= cell_2_8 9)))
 (let (($x8157 (= cell_2_8 8)))
 (let (($x275 (= cell_2_8 7)))
 (let (($x2438 (= cell_2_8 6)))
 (let (($x5189 (= cell_2_8 5)))
 (let (($x2715 (= cell_2_8 4)))
 (let (($x6047 (= cell_2_8 3)))
 (let (($x3326 (= cell_2_8 2)))
 (let (($x6741 (= cell_2_8 1)))
 (or $x6741 $x3326 $x6047 $x2715 $x5189 $x2438 $x275 $x8157 $x3680)))))))))))
(assert
 (let (($x836 (= cell_3_8 2)))
 (or (= cell_3_8 1) $x836 (= cell_3_8 3) (= cell_3_8 4) (= cell_3_8 5) (= cell_3_8 6) (= cell_3_8 7) (= cell_3_8 8) (= cell_3_8 9))))
(assert
 (let (($x4650 (= cell_4_8 9)))
 (let (($x3952 (= cell_4_8 8)))
 (let (($x4947 (= cell_4_8 7)))
 (let (($x4954 (= cell_4_8 6)))
 (let (($x5097 (= cell_4_8 5)))
 (let (($x6101 (= cell_4_8 4)))
 (let (($x4380 (= cell_4_8 3)))
 (let (($x1932 (= cell_4_8 2)))
 (let (($x10102 (= cell_4_8 1)))
 (or $x10102 $x1932 $x4380 $x6101 $x5097 $x4954 $x4947 $x3952 $x4650)))))))))))
(assert
 (let (($x1898 (= cell_5_8 9)))
 (let (($x796 (= cell_5_8 8)))
 (let (($x4299 (= cell_5_8 7)))
 (let (($x4922 (= cell_5_8 6)))
 (let (($x8984 (= cell_5_8 5)))
 (let (($x3891 (= cell_5_8 4)))
 (let (($x7655 (= cell_5_8 3)))
 (let (($x6163 (= cell_5_8 2)))
 (let (($x4697 (= cell_5_8 1)))
 (or $x4697 $x6163 $x7655 $x3891 $x8984 $x4922 $x4299 $x796 $x1898)))))))))))
(assert
 (let (($x5507 (= cell_6_8 1)))
 (or $x5507 (= cell_6_8 2) (= cell_6_8 3) (= cell_6_8 4) (= cell_6_8 5) (= cell_6_8 6) (= cell_6_8 7) (= cell_6_8 8) (= cell_6_8 9))))
(assert
 (let (($x10110 (= cell_7_8 9)))
 (let (($x2052 (= cell_7_8 8)))
 (let (($x2764 (= cell_7_8 7)))
 (let (($x2629 (= cell_7_8 6)))
 (let (($x622 (= cell_7_8 5)))
 (let (($x327 (= cell_7_8 4)))
 (let (($x7969 (= cell_7_8 3)))
 (let (($x9999 (= cell_7_8 2)))
 (let (($x3454 (= cell_7_8 1)))
 (or $x3454 $x9999 $x7969 $x327 $x622 $x2629 $x2764 $x2052 $x10110)))))))))))
(assert
 (let (($x2391 (= cell_8_8 9)))
 (let (($x6646 (= cell_8_8 8)))
 (let (($x3652 (= cell_8_8 7)))
 (let (($x5753 (= cell_8_8 6)))
 (let (($x5355 (= cell_8_8 5)))
 (let (($x5651 (= cell_8_8 4)))
 (let (($x7896 (= cell_8_8 3)))
 (let (($x3602 (= cell_8_8 2)))
 (let (($x8098 (= cell_8_8 1)))
 (or $x8098 $x3602 $x7896 $x5651 $x5355 $x5753 $x3652 $x6646 $x2391)))))))))))
(assert
 (let (($x5713 (= cell_9_8 3)))
 (let (($x6206 (= cell_9_8 2)))
 (let (($x7529 (= cell_9_8 1)))
 (or $x7529 $x6206 $x5713 (= cell_9_8 4) (= cell_9_8 5) (= cell_9_8 6) (= cell_9_8 7) (= cell_9_8 8) (= cell_9_8 9))))))
(assert
 (let (($x9315 (= cell_1_9 9)))
 (let (($x8551 (= cell_1_9 8)))
 (let (($x264 (= cell_1_9 7)))
 (let (($x8493 (= cell_1_9 6)))
 (let (($x6641 (= cell_1_9 5)))
 (let (($x4287 (= cell_1_9 4)))
 (let (($x3290 (= cell_1_9 3)))
 (let (($x7550 (= cell_1_9 2)))
 (let (($x4021 (= cell_1_9 1)))
 (or $x4021 $x7550 $x3290 $x4287 $x6641 $x8493 $x264 $x8551 $x9315)))))))))))
(assert
 (let (($x926 (= cell_2_9 9)))
 (let (($x7881 (= cell_2_9 8)))
 (let (($x4872 (= cell_2_9 7)))
 (let (($x8682 (= cell_2_9 6)))
 (let (($x2111 (= cell_2_9 5)))
 (let (($x3498 (= cell_2_9 4)))
 (let (($x7052 (= cell_2_9 3)))
 (let (($x3489 (= cell_2_9 2)))
 (let (($x9805 (= cell_2_9 1)))
 (or $x9805 $x3489 $x7052 $x3498 $x2111 $x8682 $x4872 $x7881 $x926)))))))))))
(assert
 (let (($x8588 (= cell_3_9 9)))
 (let (($x3736 (= cell_3_9 8)))
 (let (($x7807 (= cell_3_9 7)))
 (let (($x333 (= cell_3_9 6)))
 (let (($x4856 (= cell_3_9 5)))
 (let (($x10099 (= cell_3_9 4)))
 (let (($x7089 (= cell_3_9 3)))
 (let (($x9740 (= cell_3_9 2)))
 (let (($x894 (= cell_3_9 1)))
 (or $x894 $x9740 $x7089 $x10099 $x4856 $x333 $x7807 $x3736 $x8588)))))))))))
(assert
 (let (($x3042 (= cell_4_9 2)))
 (or (= cell_4_9 1) $x3042 (= cell_4_9 3) (= cell_4_9 4) (= cell_4_9 5) (= cell_4_9 6) (= cell_4_9 7) (= cell_4_9 8) (= cell_4_9 9))))
(assert
 (let (($x5245 (= cell_5_9 9)))
 (let (($x6783 (= cell_5_9 8)))
 (let (($x366 (= cell_5_9 7)))
 (let (($x3220 (= cell_5_9 6)))
 (let (($x2313 (= cell_5_9 5)))
 (let (($x8136 (= cell_5_9 4)))
 (let (($x5118 (= cell_5_9 3)))
 (let (($x295 (= cell_5_9 2)))
 (let (($x6363 (= cell_5_9 1)))
 (or $x6363 $x295 $x5118 $x8136 $x2313 $x3220 $x366 $x6783 $x5245)))))))))))
(assert
 (let (($x236 (= cell_6_9 9)))
 (let (($x2258 (= cell_6_9 8)))
 (let (($x6052 (= cell_6_9 7)))
 (let (($x1246 (= cell_6_9 6)))
 (let (($x6654 (= cell_6_9 5)))
 (let (($x5319 (= cell_6_9 4)))
 (let (($x5575 (= cell_6_9 3)))
 (let (($x1030 (= cell_6_9 2)))
 (let (($x6582 (= cell_6_9 1)))
 (or $x6582 $x1030 $x5575 $x5319 $x6654 $x1246 $x6052 $x2258 $x236)))))))))))
(assert
 (let (($x2741 (= cell_7_9 1)))
 (or $x2741 (= cell_7_9 2) (= cell_7_9 3) (= cell_7_9 4) (= cell_7_9 5) (= cell_7_9 6) (= cell_7_9 7) (= cell_7_9 8) (= cell_7_9 9))))
(assert
 (let (($x4007 (= cell_8_9 9)))
 (let (($x6329 (= cell_8_9 8)))
 (let (($x7990 (= cell_8_9 7)))
 (let (($x3967 (= cell_8_9 6)))
 (let (($x9416 (= cell_8_9 5)))
 (let (($x4288 (= cell_8_9 4)))
 (let (($x4111 (= cell_8_9 3)))
 (let (($x7751 (= cell_8_9 2)))
 (let (($x6246 (= cell_8_9 1)))
 (or $x6246 $x7751 $x4111 $x4288 $x9416 $x3967 $x7990 $x6329 $x4007)))))))))))
(assert
 (let (($x7217 (= cell_9_9 2)))
 (let (($x9749 (= cell_9_9 1)))
 (or $x9749 $x7217 (= cell_9_9 3) (= cell_9_9 4) (= cell_9_9 5) (= cell_9_9 6) (= cell_9_9 7) (= cell_9_9 8) (= cell_9_9 9)))))
(assert
 (and (distinct cell_1_1 cell_1_2 cell_1_3 cell_1_4 cell_1_5 cell_1_6 cell_1_7 cell_1_8 cell_1_9) true))
(assert
 (and (distinct cell_2_1 cell_2_2 cell_2_3 cell_2_4 cell_2_5 cell_2_6 cell_2_7 cell_2_8 cell_2_9) true))
(assert
 (and (distinct cell_3_1 cell_3_2 cell_3_3 cell_3_4 cell_3_5 cell_3_6 cell_3_7 cell_3_8 cell_3_9) true))
(assert
 (and (distinct cell_4_1 cell_4_2 cell_4_3 cell_4_4 cell_4_5 cell_4_6 cell_4_7 cell_4_8 cell_4_9) true))
(assert
 (and (distinct cell_5_1 cell_5_2 cell_5_3 cell_5_4 cell_5_5 cell_5_6 cell_5_7 cell_5_8 cell_5_9) true))
(assert
 (and (distinct cell_6_1 cell_6_2 cell_6_3 cell_6_4 cell_6_5 cell_6_6 cell_6_7 cell_6_8 cell_6_9) true))
(assert
 (and (distinct cell_7_1 cell_7_2 cell_7_3 cell_7_4 cell_7_5 cell_7_6 cell_7_7 cell_7_8 cell_7_9) true))
(assert
 (and (distinct cell_8_1 cell_8_2 cell_8_3 cell_8_4 cell_8_5 cell_8_6 cell_8_7 cell_8_8 cell_8_9) true))
(assert
 (and (distinct cell_9_1 cell_9_2 cell_9_3 cell_9_4 cell_9_5 cell_9_6 cell_9_7 cell_9_8 cell_9_9) true))
(assert
 (and (distinct cell_1_1 cell_2_1 cell_3_1 cell_4_1 cell_5_1 cell_6_1 cell_7_1 cell_8_1 cell_9_1) true))
(assert
 (and (distinct cell_1_2 cell_2_2 cell_3_2 cell_4_2 cell_5_2 cell_6_2 cell_7_2 cell_8_2 cell_9_2) true))
(assert
 (and (distinct cell_1_3 cell_2_3 cell_3_3 cell_4_3 cell_5_3 cell_6_3 cell_7_3 cell_8_3 cell_9_3) true))
(assert
 (and (distinct cell_1_4 cell_2_4 cell_3_4 cell_4_4 cell_5_4 cell_6_4 cell_7_4 cell_8_4 cell_9_4) true))
(assert
 (and (distinct cell_1_5 cell_2_5 cell_3_5 cell_4_5 cell_5_5 cell_6_5 cell_7_5 cell_8_5 cell_9_5) true))
(assert
 (and (distinct cell_1_6 cell_2_6 cell_3_6 cell_4_6 cell_5_6 cell_6_6 cell_7_6 cell_8_6 cell_9_6) true))
(assert
 (and (distinct cell_1_7 cell_2_7 cell_3_7 cell_4_7 cell_5_7 cell_6_7 cell_7_7 cell_8_7 cell_9_7) true))
(assert
 (and (distinct cell_1_8 cell_2_8 cell_3_8 cell_4_8 cell_5_8 cell_6_8 cell_7_8 cell_8_8 cell_9_8) true))
(assert
 (and (distinct cell_1_9 cell_2_9 cell_3_9 cell_4_9 cell_5_9 cell_6_9 cell_7_9 cell_8_9 cell_9_9) true))
(assert
 (and (distinct cell_1_1 cell_1_2 cell_1_3 cell_2_1 cell_2_2 cell_2_3 cell_3_1 cell_3_2 cell_3_3) true))
(assert
 (and (distinct cell_1_4 cell_1_5 cell_1_6 cell_2_4 cell_2_5 cell_2_6 cell_3_4 cell_3_5 cell_3_6) true))
(assert
 (and (distinct cell_1_7 cell_1_8 cell_1_9 cell_2_7 cell_2_8 cell_2_9 cell_3_7 cell_3_8 cell_3_9) true))
(assert
 (and (distinct cell_4_1 cell_4_2 cell_4_3 cell_5_1 cell_5_2 cell_5_3 cell_6_1 cell_6_2 cell_6_3) true))
(assert
 (and (distinct cell_4_4 cell_4_5 cell_4_6 cell_5_4 cell_5_5 cell_5_6 cell_6_4 cell_6_5 cell_6_6) true))
(assert
 (and (distinct cell_4_7 cell_4_8 cell_4_9 cell_5_7 cell_5_8 cell_5_9 cell_6_7 cell_6_8 cell_6_9) true))
(assert
 (and (distinct cell_7_1 cell_7_2 cell_7_3 cell_8_1 cell_8_2 cell_8_3 cell_9_1 cell_9_2 cell_9_3) true))
(assert
 (and (distinct cell_7_4 cell_7_5 cell_7_6 cell_8_4 cell_8_5 cell_8_6 cell_9_4 cell_9_5 cell_9_6) true))
(assert
 (and (distinct cell_7_7 cell_7_8 cell_7_9 cell_8_7 cell_8_8 cell_8_9 cell_9_7 cell_9_8 cell_9_9) true))
(assert
 (let (($x846 (and (distinct cell_5_9 cell_6_8 cell_7_7 cell_8_6) true)))
 (let (($x8429 (and (distinct cell_2_9 cell_3_8 cell_4_7 cell_5_6 cell_6_5 cell_7_4 cell_8_3 cell_9_2) true)))
 (let (($x7464 (and (distinct cell_1_8 cell_2_7 cell_3_6 cell_4_5 cell_5_4 cell_6_3 cell_7_2 cell_8_1) true)))
 (let (($x8333 (and (distinct cell_1_5 cell_2_4 cell_3_3 cell_4_2) true)))
 (let (($x5459 (and (distinct cell_5_1 cell_6_2 cell_7_3 cell_8_4) true)))
 (let (($x6475 (and (distinct cell_2_1 cell_3_2 cell_4_3 cell_5_4 cell_6_5 cell_7_6 cell_8_7 cell_9_8) true)))
 (let (($x5362 (and (distinct cell_1_2 cell_2_3 cell_3_4 cell_4_5 cell_5_6 cell_6_7 cell_7_8 cell_8_9) true)))
 (let (($x9910 (and (distinct cell_1_5 cell_2_6 cell_3_7 cell_4_8) true)))
 (and $x9910 $x5362 $x6475 $x5459 $x8333 $x7464 $x8429 $x846))))))))))
(assert
 (and (distinct cell_2_5 3) true))
(check-sat)
